Pt1                                     
    1.000000000000000     
     2.4348613375263191    0.0000046260022950    1.4057818227049297
     0.8116260975407684    2.2956063891736975    1.4057818920942302
     0.0000066489101214    0.0000047859485301    2.8115421551789401
   Pt
     1
Direct
 -0.0000000152503597 -0.0000000412988154 -0.0000000128639289
 
  0.00000000E+00  0.00000000E+00  0.00000000E+00
