Pt24                                    
    1.000000000000000     
     5.6371940000000000    0.0000000000000000    0.0000000000000000
    -2.8185970000000000    4.8819530000000002    0.0000000000000000
     0.0000000000000000    0.0000000000000000   41.4247459999999990
   Pt
    24
Selective dynamics
Direct
  0.3333330000000032  0.1666669999999968  0.3611110000000011   F   F   F
  0.3333330000000032  0.6666669999999968  0.3611110000000011   F   F   F
  0.8333330000000032  0.1666669999999968  0.3611110000000011   F   F   F
  0.8333330000000032  0.6666669999999968  0.3611110000000011   F   F   F
  0.0000000000000000  0.0000000000000000  0.4166669999999968   F   F   F
  0.0000000000000000  0.5000000000000000  0.4166669999999968   F   F   F
  0.5000000000000000  0.0000000000000000  0.4166669999999968   F   F   F
  0.5000000000000000  0.5000000000000000  0.4166669999999968   F   F   F
  0.1666669999999968  0.3333330000000032  0.4722220000000021   F   F   F
  0.1666669999999968  0.8333330000000032  0.4722220000000021   F   F   F
  0.6666669999999968  0.3333330000000032  0.4722220000000021   F   F   F
  0.6666669999999968  0.8333330000000032  0.4722220000000021   F   F   F
  0.3329582039965067  0.1671839795225772  0.5290204938149998   T   T   T
  0.3326910956971274  0.6671376447161619  0.5289887246590090   T   T   T
  0.8328155335208642  0.1672458640363785  0.5289834243179098   T   T   T
  0.8326543629592480  0.6672242346053727  0.5289675679177832   T   T   T
 -0.0053624985231658  0.0053459822352966  0.5856389333670834   T   T   T
  0.9945772486388452  0.5053129295391252  0.5856882087254000   T   T   T
  0.4946875003889742  0.0054319752523402  0.5856854394567031   T   T   T
  0.4947301562883465  0.5053637511706566  0.5856923962848690   T   T   T
  0.1664462287443953  0.3334262902373464  0.6435605122543401   T   T   T
  0.1664280816816824  0.8334358728912562  0.6435487934119716   T   T   T
  0.6664940126502853  0.3334957969386746  0.6435987841144181   T   T   T
  0.6665016631768231  0.8334747679048776  0.6435659613417616   T   T   T
 
  0.00000000E+00  0.00000000E+00  0.00000000E+00
  0.00000000E+00  0.00000000E+00  0.00000000E+00
  0.00000000E+00  0.00000000E+00  0.00000000E+00
  0.00000000E+00  0.00000000E+00  0.00000000E+00
  0.00000000E+00  0.00000000E+00  0.00000000E+00
  0.00000000E+00  0.00000000E+00  0.00000000E+00
  0.00000000E+00  0.00000000E+00  0.00000000E+00
  0.00000000E+00  0.00000000E+00  0.00000000E+00
  0.00000000E+00  0.00000000E+00  0.00000000E+00
  0.00000000E+00  0.00000000E+00  0.00000000E+00
  0.00000000E+00  0.00000000E+00  0.00000000E+00
  0.00000000E+00  0.00000000E+00  0.00000000E+00
  0.00000000E+00  0.00000000E+00  0.00000000E+00
  0.00000000E+00  0.00000000E+00  0.00000000E+00
  0.00000000E+00  0.00000000E+00  0.00000000E+00
  0.00000000E+00  0.00000000E+00  0.00000000E+00
  0.00000000E+00  0.00000000E+00  0.00000000E+00
  0.00000000E+00  0.00000000E+00  0.00000000E+00
  0.00000000E+00  0.00000000E+00  0.00000000E+00
  0.00000000E+00  0.00000000E+00  0.00000000E+00
  0.00000000E+00  0.00000000E+00  0.00000000E+00
  0.00000000E+00  0.00000000E+00  0.00000000E+00
  0.00000000E+00  0.00000000E+00  0.00000000E+00
  0.00000000E+00  0.00000000E+00  0.00000000E+00
