Pt1                                     
    1.000000000000000     
     2.4348610000000002    0.0000050000000000    1.4057820000000001
     0.8116260000000000    2.2956059999999998    1.4057820000000001
     0.0000070000000000    0.0000050000000000    2.8115420000000002
   Pt
     1
Direct
  0.0000000000000000  0.0000000000000000  0.0000000000000000
 
  0.00000000E+00  0.00000000E+00  0.00000000E+00
