Pt20                                    
    1.000000000000000     
     5.6335420000000003    0.0000000000000000    0.2028870000000000
     2.8131170000000001    4.8808980000000002    0.2028870000000000
     0.0000000000000000    0.0000000000000000   39.1572000000000031
   Pt
    20
Selective dynamics
Direct
  0.0146810744155436  0.0147178457538139  0.6184082558939656   T   T   T
  0.0146842610308107  0.5147131511937281  0.6184081912244547   T   T   T
  0.5146791054157583  0.0147116954957021  0.6184118018512480   T   T   T
  0.5146815560611420  0.5147119265673544  0.6184156893822407   T   T   T
  0.1906891692147017  0.1906560384424129  0.5581906543339086   T   T   T
  0.1907310392588226  0.6906411929286095  0.5581918473924304   T   T   T
  0.6907302054353002  0.1906704442290487  0.5581898982950001   T   T   T
  0.6907218558685173  0.6906276671684085  0.5581898848774720   T   T   T
  0.3682085304247328  0.3681880977987532  0.4998425976259995   T   T   T
  0.3682053175382589  0.8681808537327824  0.4998428413862416   T   T   T
  0.8681781283988682  0.3681976238351761  0.4998420685990523   T   T   T
  0.8681978999860589  0.8681844863360647  0.4998460010298009   T   T   T
  0.0441179999999974  0.0441179999999974  0.4411759999999987   F   F   F
  0.0441179999999974  0.5441179999999974  0.4411759999999987   F   F   F
  0.5441179999999974  0.0441179999999974  0.4411759999999987   F   F   F
  0.5441179999999974  0.5441179999999974  0.4411759999999987   F   F   F
  0.2205879999999993  0.2205879999999993  0.3823530000000019   F   F   F
  0.2205879999999993  0.7205879999999993  0.3823530000000019   F   F   F
  0.7205879999999993  0.2205879999999993  0.3823530000000019   F   F   F
  0.7205879999999993  0.7205879999999993  0.3823530000000019   F   F   F
 
  0.00000000E+00  0.00000000E+00  0.00000000E+00
  0.00000000E+00  0.00000000E+00  0.00000000E+00
  0.00000000E+00  0.00000000E+00  0.00000000E+00
  0.00000000E+00  0.00000000E+00  0.00000000E+00
  0.00000000E+00  0.00000000E+00  0.00000000E+00
  0.00000000E+00  0.00000000E+00  0.00000000E+00
  0.00000000E+00  0.00000000E+00  0.00000000E+00
  0.00000000E+00  0.00000000E+00  0.00000000E+00
  0.00000000E+00  0.00000000E+00  0.00000000E+00
  0.00000000E+00  0.00000000E+00  0.00000000E+00
  0.00000000E+00  0.00000000E+00  0.00000000E+00
  0.00000000E+00  0.00000000E+00  0.00000000E+00
  0.00000000E+00  0.00000000E+00  0.00000000E+00
  0.00000000E+00  0.00000000E+00  0.00000000E+00
  0.00000000E+00  0.00000000E+00  0.00000000E+00
  0.00000000E+00  0.00000000E+00  0.00000000E+00
  0.00000000E+00  0.00000000E+00  0.00000000E+00
  0.00000000E+00  0.00000000E+00  0.00000000E+00
  0.00000000E+00  0.00000000E+00  0.00000000E+00
  0.00000000E+00  0.00000000E+00  0.00000000E+00
