Pt16 C1 O1                              
    1.000000000000000     
     5.6330720000000003    0.0000000000000000    0.2155430000000000
     2.8124120000000001    4.8807619999999998    0.2155430000000000
     0.0000000000000000    0.0000000000000000   36.8579379999999972
   Pt   C    O 
    16     1     1
Selective dynamics
Direct
  0.0156250000000000  0.1406250000000000  0.4062500000000000   F   F   F
  0.0156250000000000  0.6406250000000000  0.4062500000000000   F   F   F
  0.5156250000000000  0.1406250000000000  0.4062500000000000   F   F   F
  0.5156250000000000  0.6406250000000000  0.4062500000000000   F   F   F
  0.1718750000000000  0.2968750000000000  0.4687500000000000   F   F   F
  0.1718750000000000  0.7968750000000000  0.4687500000000000   F   F   F
  0.6718750000000000  0.2968750000000000  0.4687500000000000   F   F   F
  0.6718750000000000  0.7968750000000000  0.4687500000000000   F   F   F
  0.3424243029168793  0.4084596599044721  0.5321691416450482   T   T   T
  0.3458465267473562  0.9091202930365805  0.5325885926005749   T   T   T
  0.8423617166282878  0.4083065714878025  0.5321196452542295   T   T   T
  0.8402030640769704  0.9078411864318116  0.5324115269909663   T   T   T
  0.5139400392049153  0.0085134775867895  0.6006292065222899   T   T   T
  0.5125456051325472  0.5110619702128805  0.5985649690648471   T   T   T
  0.0132043102997558  0.0106347972276599  0.5984870945073202   T   T   T
  0.0131835178948291  0.5110201826074875  0.5985625747341237   T   T   T
  0.5073241616296389  0.0014885264318390  0.6520497448851436   T   T   T
  0.4995056920406061 -0.0007324504799899  0.6834294280492125   T   T   T
 
  0.00000000E+00  0.00000000E+00  0.00000000E+00
  0.00000000E+00  0.00000000E+00  0.00000000E+00
  0.00000000E+00  0.00000000E+00  0.00000000E+00
  0.00000000E+00  0.00000000E+00  0.00000000E+00
  0.00000000E+00  0.00000000E+00  0.00000000E+00
  0.00000000E+00  0.00000000E+00  0.00000000E+00
  0.00000000E+00  0.00000000E+00  0.00000000E+00
  0.00000000E+00  0.00000000E+00  0.00000000E+00
  0.00000000E+00  0.00000000E+00  0.00000000E+00
  0.00000000E+00  0.00000000E+00  0.00000000E+00
  0.00000000E+00  0.00000000E+00  0.00000000E+00
  0.00000000E+00  0.00000000E+00  0.00000000E+00
  0.00000000E+00  0.00000000E+00  0.00000000E+00
  0.00000000E+00  0.00000000E+00  0.00000000E+00
  0.00000000E+00  0.00000000E+00  0.00000000E+00
  0.00000000E+00  0.00000000E+00  0.00000000E+00
  0.00000000E+00  0.00000000E+00  0.00000000E+00
  0.00000000E+00  0.00000000E+00  0.00000000E+00
