Pt4                                     
    1.000000000000000     
    -3.9860980000000001    3.9860980000000001    0.0000000000000000
    -3.9860980000000001    0.0000000000000000    3.9860980000000001
     3.9860980000000001    0.0000000000000000    0.0000000000000000
   Pt
     4
Direct
  0.0000000000000000  0.0000000000000000  0.0000000000000000
  0.5000000000000000  0.5000000000000000  0.0000000000000000
  0.0000000000000000  0.5000000000000000  0.0000000000000000
  0.5000000000000000  0.0000000000000000  0.0000000000000000
 
  0.00000000E+00  0.00000000E+00  0.00000000E+00
  0.00000000E+00  0.00000000E+00  0.00000000E+00
  0.00000000E+00  0.00000000E+00  0.00000000E+00
  0.00000000E+00  0.00000000E+00  0.00000000E+00
