Pt1                                     
    1.000000000000000     
     2.5517349999999999    0.0000050000000000    1.4732590000000001
     0.8505840000000000    2.4057949999999999    1.4732590000000001
     0.0000070000000000    0.0000050000000000    2.9464959999999998
   Pt
     1
Direct
  0.0000000000000000  0.0000000000000000  0.0000000000000000
 
  0.00000000E+00  0.00000000E+00  0.00000000E+00
