Pt16                                    
    1.000000000000000     
     5.6330720000000003    0.0000000000000000    0.2155430000000000
     2.8124120000000001    4.8807619999999998    0.2155430000000000
     0.0000000000000000    0.0000000000000000   36.8579379999999972
   Pt
    16
Selective dynamics
Direct
  0.0156250000000000  0.1406250000000000  0.4062500000000000   F   F   F
  0.0156250000000000  0.6406250000000000  0.4062500000000000   F   F   F
  0.5156250000000000  0.1406250000000000  0.4062500000000000   F   F   F
  0.5156250000000000  0.6406250000000000  0.4062500000000000   F   F   F
  0.1718750000000000  0.2968750000000000  0.4687500000000000   F   F   F
  0.1718750000000000  0.7968750000000000  0.4687500000000000   F   F   F
  0.6718750000000000  0.2968750000000000  0.4687500000000000   F   F   F
  0.6718750000000000  0.7968750000000000  0.4687500000000000   F   F   F
  0.3427924049984451  0.4091725088475472  0.5321260786213402   T   T   T
  0.3428030973098468  0.9091378266258383  0.5321323610863008   T   T   T
  0.8427659971767222  0.4092611975857005  0.5321397479601467   T   T   T
  0.8428750213480193  0.9092343236406534  0.5321322194847390   T   T   T
  0.5131589964099965  0.0105487563268717  0.5986706879303487   T   T   T
  0.5131260122016350  0.5105091397288243  0.5986839458514841   T   T   T
  0.0131214474831728  0.0104927871802839  0.5986863601123918   T   T   T
  0.0131135905001169  0.5105228113812726  0.5986805933429916   T   T   T
 
  0.00000000E+00  0.00000000E+00  0.00000000E+00
  0.00000000E+00  0.00000000E+00  0.00000000E+00
  0.00000000E+00  0.00000000E+00  0.00000000E+00
  0.00000000E+00  0.00000000E+00  0.00000000E+00
  0.00000000E+00  0.00000000E+00  0.00000000E+00
  0.00000000E+00  0.00000000E+00  0.00000000E+00
  0.00000000E+00  0.00000000E+00  0.00000000E+00
  0.00000000E+00  0.00000000E+00  0.00000000E+00
  0.00000000E+00  0.00000000E+00  0.00000000E+00
  0.00000000E+00  0.00000000E+00  0.00000000E+00
  0.00000000E+00  0.00000000E+00  0.00000000E+00
  0.00000000E+00  0.00000000E+00  0.00000000E+00
  0.00000000E+00  0.00000000E+00  0.00000000E+00
  0.00000000E+00  0.00000000E+00  0.00000000E+00
  0.00000000E+00  0.00000000E+00  0.00000000E+00
  0.00000000E+00  0.00000000E+00  0.00000000E+00
