C1 O1
1.0
15.000000 0.000000 0.000000
0.000000 15.000000 0.000000
0.000000 0.000000 15.000000
C O
1 1
direct
0.500000 0.500000 0.461655 C
0.500000 0.500000 0.538345 O
