Pt16 C1 O1                              
    1.000000000000000     
     5.6330720000000003    0.0000000000000000    0.2155430000000000
     2.8124120000000001    4.8807619999999998    0.2155430000000000
     0.0000000000000000    0.0000000000000000   36.8579379999999972
   Pt   C    O 
    16     1     1
Selective dynamics
Direct
  0.0156250000000000  0.1406250000000000  0.4062500000000000   F   F   F
  0.0156250000000000  0.6406250000000000  0.4062500000000000   F   F   F
  0.5156250000000000  0.1406250000000000  0.4062500000000000   F   F   F
  0.5156250000000000  0.6406250000000000  0.4062500000000000   F   F   F
  0.1718750000000000  0.2968750000000000  0.4687500000000000   F   F   F
  0.1718750000000000  0.7968750000000000  0.4687500000000000   F   F   F
  0.6718750000000000  0.2968750000000000  0.4687500000000000   F   F   F
  0.6718750000000000  0.7968750000000000  0.4687500000000000   F   F   F
  0.3428017401152670  0.4088224952195322  0.5319939621062777   T   T   T
  0.3413505655721437  0.9083822004317602  0.5366800979582319   T   T   T
  0.8441204069206537  0.4092302191490126  0.5321310627524998   T   T   T
  0.8432650871292106  0.9105513639855949  0.5319558963777750   T   T   T
  0.5203168244773445  0.0101529422349818  0.6023786934733559   T   T   T
  0.5130651003302156  0.5151526163748430  0.5989511917735041   T   T   T
  0.0124177681996201  0.0092594363887866  0.6039413032416922   T   T   T
  0.0162772928635018  0.5076535939188926  0.5987506919411815   T   T   T
  0.7608938716648529  0.0106488609780044  0.6456859210702278   T   T   T
  0.7255793625840428  0.9754970542242312  0.6770202493108208   T   T   T
 
  0.00000000E+00  0.00000000E+00  0.00000000E+00
  0.00000000E+00  0.00000000E+00  0.00000000E+00
  0.00000000E+00  0.00000000E+00  0.00000000E+00
  0.00000000E+00  0.00000000E+00  0.00000000E+00
  0.00000000E+00  0.00000000E+00  0.00000000E+00
  0.00000000E+00  0.00000000E+00  0.00000000E+00
  0.00000000E+00  0.00000000E+00  0.00000000E+00
  0.00000000E+00  0.00000000E+00  0.00000000E+00
  0.00000000E+00  0.00000000E+00  0.00000000E+00
  0.00000000E+00  0.00000000E+00  0.00000000E+00
  0.00000000E+00  0.00000000E+00  0.00000000E+00
  0.00000000E+00  0.00000000E+00  0.00000000E+00
  0.00000000E+00  0.00000000E+00  0.00000000E+00
  0.00000000E+00  0.00000000E+00  0.00000000E+00
  0.00000000E+00  0.00000000E+00  0.00000000E+00
  0.00000000E+00  0.00000000E+00  0.00000000E+00
  0.00000000E+00  0.00000000E+00  0.00000000E+00
  0.00000000E+00  0.00000000E+00  0.00000000E+00
