Pt1
1.0
2.434861 0.000005 1.405782
0.811626 2.295606 1.405782
0.000007 0.000005 2.811542
Pt
1
direct
-0.000000 -0.000000 -0.000000 Pt

0.000000 0.000000 0.000000
