Pt1                                     
    1.000000000000000     
     2.3179880000000002    0.0000040000000000    1.3383039999999999
     0.7726680000000000    2.1854170000000002    1.3383039999999999
     0.0000060000000000    0.0000050000000000    2.6765880000000002
   Pt
     1
Direct
  0.0000000000000000  0.0000000000000000  0.0000000000000000
 
  0.00000000E+00  0.00000000E+00  0.00000000E+00
