Pt1
1.0
2.259551 0.000004 1.304566
0.753189 2.130323 1.304566
0.000006 0.000004 2.609111
Pt
1
direct
-0.000000 -0.000000 -0.000000 Pt

0.000000 0.000000 0.000000
