Pt1
1.0
2.727045 0.000005 1.574476
0.909021 2.571079 1.574476
0.000007 0.000005 3.148927
Pt
1
direct
-0.000000 -0.000000 -0.000000 Pt

0.000000 0.000000 0.000000
