Pt12
1.0
5.637194 0.000000 -0.000000
-2.818597 4.881953 0.000000
0.000000 0.000000 34.520622
Pt
12
Selective dynamics
direct
0.333333 0.166667 0.433333 F F F Pt
0.333333 0.666667 0.433333 F F F Pt
0.833333 0.166667 0.433333 F F F Pt
0.833333 0.666667 0.433333 F F F Pt
0.500000 0.000000 0.500000 F F F Pt
0.500000 0.500000 0.500000 F F F Pt
1.000000 0.000000 0.500000 F F F Pt
1.000000 0.500000 0.500000 F F F Pt
0.166667 0.333333 0.566667 T T T Pt
0.166667 0.833333 0.566667 T T T Pt
0.666667 0.333333 0.566667 T T T Pt
0.666667 0.833333 0.566667 T T T Pt
