Pt1
1.0
2.317988 0.000004 1.338304
0.772668 2.185417 1.338304
0.000006 0.000005 2.676588
Pt
1
direct
-0.000000 -0.000000 -0.000000 Pt

0.000000 0.000000 0.000000
