Pt1
1.0
2.668608 0.000005 1.540737
0.889542 2.515985 1.540737
0.000007 0.000005 3.081450
Pt
1
direct
-0.000000 -0.000000 -0.000000 Pt

0.000000 0.000000 0.000000
