Pt1
1.0
2.376425 0.000005 1.372043
0.792147 2.240512 1.372043
0.000006 0.000005 2.744065
Pt
1
direct
-0.000000 -0.000000 -0.000000 Pt

0.000000 0.000000 0.000000
