Pt1                                     
    1.000000000000000     
     2.1426780000000001    0.0000040000000000    1.2370880000000000
     0.7142309999999999    2.0201340000000001    1.2370880000000000
     0.0000060000000000    0.0000040000000000    2.4741569999999999
   Pt
     1
Direct
  0.0000000000000000  0.0000000000000000  0.0000000000000000
 
  0.00000000E+00  0.00000000E+00  0.00000000E+00
