Pt1                                     
    1.000000000000000     
     2.2595510000000001    0.0000040000000000    1.3045659999999999
     0.7531890000000000    2.1303230000000002    1.3045659999999999
     0.0000060000000000    0.0000040000000000    2.6091110000000000
   Pt
     1
Direct
  0.0000000000000000  0.0000000000000000  0.0000000000000000
 
  0.00000000E+00  0.00000000E+00  0.00000000E+00
