Pt1
1.0
2.493298 0.000005 1.439521
0.831105 2.350701 1.439521
0.000007 0.000005 2.879019
Pt
1
direct
-0.000000 -0.000000 -0.000000 Pt

0.000000 0.000000 0.000000
