Pt1                                     
    1.000000000000000     
     2.7270449999999999    0.0000050000000000    1.5744760000000000
     0.9090210000000000    2.5710790000000001    1.5744760000000000
     0.0000070000000000    0.0000050000000000    3.1489270000000000
   Pt
     1
Direct
  0.0000000000000000  0.0000000000000000  0.0000000000000000
 
  0.00000000E+00  0.00000000E+00  0.00000000E+00
