ALGO = 38
EDIFF = 0.0001
EDIFFG = -0.03
ENCUT = 460.0
GGA = RP
IBRION = 2
ISIF = 0
ISMEAR = 0
ISPIN = 1
ISYM = 0
LASPH = False
LORBIT = 11
LREAL = False
LVTOT = False
LWAVE = False
NCORE = 4
NELM = 60
NELMIN = 4
NSW = 0
PREC = Normal
SIGMA = 0.05
SYMPREC = 1e-06
