Pt16 C1 O1
1.0
5.633072 0.000000 0.215543
2.812412 4.880762 0.215543
0.000000 0.000000 36.857938
Pt C O
16 1 1
Selective dynamics
direct
0.015625 0.140625 0.406250 F F F Pt
0.015625 0.640625 0.406250 F F F Pt
0.515625 0.140625 0.406250 F F F Pt
0.515625 0.640625 0.406250 F F F Pt
0.171875 0.296875 0.468750 F F F Pt
0.171875 0.796875 0.468750 F F F Pt
0.671875 0.296875 0.468750 F F F Pt
0.671875 0.796875 0.468750 F F F Pt
0.342792 0.409173 0.532126 T T T Pt
0.342803 0.909138 0.532132 T T T Pt
0.842766 0.409261 0.532140 T T T Pt
0.842875 0.909234 0.532132 T T T Pt
0.513159 0.010549 0.598671 T T T Pt
0.513126 0.510509 0.598684 T T T Pt
0.013121 0.010493 0.598686 T T T Pt
0.013114 0.510523 0.598681 T T T Pt
0.504106 0.001496 0.652986 T T T C
0.498900 -0.003711 0.684227 T T T O
