Pt4
1.0
-3.986098 3.986098 0.000000
-3.986098 0.000000 3.986098
3.986098 0.000000 0.000000
Pt
4
direct
0.000000 0.000000 0.000000 Pt
0.500000 0.500000 0.000000 Pt
0.000000 0.500000 0.000000 Pt
0.500000 0.000000 1.000000 Pt
