Pt16 C1 O1                              
    1.000000000000000     
     5.6330720000000003    0.0000000000000000    0.2155430000000000
     2.8124120000000001    4.8807619999999998    0.2155430000000000
     0.0000000000000000    0.0000000000000000   36.8579379999999972
   Pt   C    O 
    16     1     1
Selective dynamics
Direct
  0.0156250000000000  0.1406250000000000  0.4062500000000000   F   F   F
  0.0156250000000000  0.6406250000000000  0.4062500000000000   F   F   F
  0.5156250000000000  0.1406250000000000  0.4062500000000000   F   F   F
  0.5156250000000000  0.6406250000000000  0.4062500000000000   F   F   F
  0.1718750000000000  0.2968750000000000  0.4687500000000000   F   F   F
  0.1718750000000000  0.7968750000000000  0.4687500000000000   F   F   F
  0.6718750000000000  0.2968750000000000  0.4687500000000000   F   F   F
  0.6718750000000000  0.7968750000000000  0.4687500000000000   F   F   F
  0.3424744401542690  0.4052346803318114  0.5323052643253839   T   T   T
  0.3488717199372656  0.8897623735892424  0.5409752177262510   T   T   T
  0.8438452595762006  0.4057070778357624  0.5323193511777482   T   T   T
  0.8429272222357149  0.9080772183627450  0.5322136133395392   T   T   T
  0.5168229220994355  0.0128906908597780  0.6049127813569964   T   T   T
  0.5191640784051503  0.4998832153547626  0.6045073325444398   T   T   T
  0.0115844407163507  0.0102863176888644  0.6041077200021633   T   T   T
  0.0140778461921457  0.5108718172081014  0.5988549957255662   T   T   T
  0.6645966064386489  0.1707719350233160  0.6500691482275959   T   T   T
  0.6541199263229112  0.1897573932196524  0.6822061032564513   T   T   T
 
  0.00000000E+00  0.00000000E+00  0.00000000E+00
  0.00000000E+00  0.00000000E+00  0.00000000E+00
  0.00000000E+00  0.00000000E+00  0.00000000E+00
  0.00000000E+00  0.00000000E+00  0.00000000E+00
  0.00000000E+00  0.00000000E+00  0.00000000E+00
  0.00000000E+00  0.00000000E+00  0.00000000E+00
  0.00000000E+00  0.00000000E+00  0.00000000E+00
  0.00000000E+00  0.00000000E+00  0.00000000E+00
  0.00000000E+00  0.00000000E+00  0.00000000E+00
  0.00000000E+00  0.00000000E+00  0.00000000E+00
  0.00000000E+00  0.00000000E+00  0.00000000E+00
  0.00000000E+00  0.00000000E+00  0.00000000E+00
  0.00000000E+00  0.00000000E+00  0.00000000E+00
  0.00000000E+00  0.00000000E+00  0.00000000E+00
  0.00000000E+00  0.00000000E+00  0.00000000E+00
  0.00000000E+00  0.00000000E+00  0.00000000E+00
  0.00000000E+00  0.00000000E+00  0.00000000E+00
  0.00000000E+00  0.00000000E+00  0.00000000E+00
