Pt1                                     
    1.000000000000000     
     2.6686079999999999    0.0000050000000000    1.5407370000000000
     0.8895420000000001    2.5159850000000001    1.5407370000000000
     0.0000070000000000    0.0000050000000000    3.0814499999999998
   Pt
     1
Direct
  0.0000000000000000  0.0000000000000000  0.0000000000000000
 
  0.00000000E+00  0.00000000E+00  0.00000000E+00
