Pt20                                    
    1.000000000000000     
     5.6335420000000003    0.0000000000000000    0.2028870000000000
     2.8131170000000001    4.8808980000000002    0.2028870000000000
     0.0000000000000000    0.0000000000000000   39.1572000000000031
   Pt
    20
Selective dynamics
Direct
  0.0071234413137224  0.0074508819782693  0.6211485119913960   T   T   T
  0.0070947418445361  0.5074868200467634  0.6211381043738681   T   T   T
  0.5070467235453773  0.0074692217328054  0.6211578485016213   T   T   T
  0.5070536526292091  0.5074920718728683  0.6211537546449025   T   T   T
  0.1864480869482932  0.1852450347005729  0.5599186920587972   T   T   T
  0.1865040678098406  0.6852839136936539  0.5599143731353141   T   T   T
  0.6864174854565740  0.1852308862987611  0.5599207910970442   T   T   T
  0.6865683168003519  0.6851696263681873  0.5599188082591926   T   T   T
  0.3688928451761591  0.3693584754345122  0.5006880202492231   T   T   T
  0.3690160030727828  0.8693677195214299  0.5006913235096077   T   T   T
  0.8688889375955182  0.3692248374135367  0.5006606239046054   T   T   T
  0.8689892922773460  0.8693410607898638  0.5006902162541892   T   T   T
  0.0441179999999974  0.0441179999999974  0.4411759999999987   F   F   F
  0.0441179999999974  0.5441179999999974  0.4411759999999987   F   F   F
  0.5441179999999974  0.0441179999999974  0.4411759999999987   F   F   F
  0.5441179999999974  0.5441179999999974  0.4411759999999987   F   F   F
  0.2205879999999993  0.2205879999999993  0.3823530000000019   F   F   F
  0.2205879999999993  0.7205879999999993  0.3823530000000019   F   F   F
  0.7205879999999993  0.2205879999999993  0.3823530000000019   F   F   F
  0.7205879999999993  0.7205879999999993  0.3823530000000019   F   F   F
 
  0.00000000E+00  0.00000000E+00  0.00000000E+00
  0.00000000E+00  0.00000000E+00  0.00000000E+00
  0.00000000E+00  0.00000000E+00  0.00000000E+00
  0.00000000E+00  0.00000000E+00  0.00000000E+00
  0.00000000E+00  0.00000000E+00  0.00000000E+00
  0.00000000E+00  0.00000000E+00  0.00000000E+00
  0.00000000E+00  0.00000000E+00  0.00000000E+00
  0.00000000E+00  0.00000000E+00  0.00000000E+00
  0.00000000E+00  0.00000000E+00  0.00000000E+00
  0.00000000E+00  0.00000000E+00  0.00000000E+00
  0.00000000E+00  0.00000000E+00  0.00000000E+00
  0.00000000E+00  0.00000000E+00  0.00000000E+00
  0.00000000E+00  0.00000000E+00  0.00000000E+00
  0.00000000E+00  0.00000000E+00  0.00000000E+00
  0.00000000E+00  0.00000000E+00  0.00000000E+00
  0.00000000E+00  0.00000000E+00  0.00000000E+00
  0.00000000E+00  0.00000000E+00  0.00000000E+00
  0.00000000E+00  0.00000000E+00  0.00000000E+00
  0.00000000E+00  0.00000000E+00  0.00000000E+00
  0.00000000E+00  0.00000000E+00  0.00000000E+00
