Pt1                                     
    1.000000000000000     
     2.4932979999999998    0.0000050000000000    1.4395210000000001
     0.8311050000000000    2.3507009999999999    1.4395210000000001
     0.0000070000000000    0.0000050000000000    2.8790190000000000
   Pt
     1
Direct
  0.0000000000000000  0.0000000000000000  0.0000000000000000
 
  0.00000000E+00  0.00000000E+00  0.00000000E+00
