Pt1
1.0
2.142678 0.000004 1.237088
0.714231 2.020134 1.237088
0.000006 0.000004 2.474157
Pt
1
direct
-0.000000 -0.000000 -0.000000 Pt

0.000000 0.000000 0.000000
