Pt1
1.0
2.201115 0.000004 1.270827
0.733710 2.075228 1.270827
0.000006 0.000004 2.541634
Pt
1
direct
-0.000000 -0.000000 -0.000000 Pt

0.000000 0.000000 0.000000
