Pt16
1.0
5.633072 0.000000 0.215543
2.812412 4.880762 0.215543
0.000000 0.000000 36.857938
Pt
16
Selective dynamics
direct
0.015625 0.140625 0.406250 F F F Pt
0.015625 0.640625 0.406250 F F F Pt
0.515625 0.140625 0.406250 F F F Pt
0.515625 0.640625 0.406250 F F F Pt
0.171875 0.296875 0.468750 F F F Pt
0.171875 0.796875 0.468750 F F F Pt
0.671875 0.296875 0.468750 F F F Pt
0.671875 0.796875 0.468750 F F F Pt
0.328125 0.453125 0.531250 T T T Pt
0.328125 0.953125 0.531250 T T T Pt
0.828125 0.453125 0.531250 T T T Pt
0.828125 0.953125 0.531250 T T T Pt
0.484375 0.109375 0.593750 T T T Pt
0.484375 0.609375 0.593750 T T T Pt
0.984375 0.109375 0.593750 T T T Pt
0.984375 0.609375 0.593750 T T T Pt
