Pt1
1.0
2.551735 0.000005 1.473259
0.850584 2.405795 1.473259
0.000007 0.000005 2.946496
Pt
1
direct
-0.000000 -0.000000 -0.000000 Pt

0.000000 0.000000 0.000000
