Pt24                                    
    1.000000000000000     
     5.6371940000000000    0.0000000000000000    0.0000000000000000
    -2.8185970000000000    4.8819530000000002    0.0000000000000000
     0.0000000000000000    0.0000000000000000   41.4247459999999990
   Pt
    24
Selective dynamics
Direct
  0.3333330000000032  0.1666669999999968  0.3611110000000011   F   F   F
  0.3333330000000032  0.6666669999999968  0.3611110000000011   F   F   F
  0.8333330000000032  0.1666669999999968  0.3611110000000011   F   F   F
  0.8333330000000032  0.6666669999999968  0.3611110000000011   F   F   F
  0.0000000000000000  0.0000000000000000  0.4166669999999968   F   F   F
  0.0000000000000000  0.5000000000000000  0.4166669999999968   F   F   F
  0.5000000000000000  0.0000000000000000  0.4166669999999968   F   F   F
  0.5000000000000000  0.5000000000000000  0.4166669999999968   F   F   F
  0.1666669999999968  0.3333330000000032  0.4722220000000021   F   F   F
  0.1666669999999968  0.8333330000000032  0.4722220000000021   F   F   F
  0.6666669999999968  0.3333330000000032  0.4722220000000021   F   F   F
  0.6666669999999968  0.8333330000000032  0.4722220000000021   F   F   F
  0.3332858656180399  0.1666438844757457  0.5277141088610823   T   T   T
  0.3333216035018502  0.6666613886864404  0.5277199557720796   T   T   T
  0.8333637582017398  0.1666550035756484  0.5277083023394303   T   T   T
  0.8333615219474829  0.6667079592476746  0.5277139496557632   T   T   T
 -0.0000478975226128  0.0000604689939512  0.5823826947288009   T   T   T
 -0.0001543892829645  0.4998345440761480  0.5824105619828384   T   T   T
  0.5001525550347019  0.0001485778291269  0.5824227963819852   T   T   T
  0.5000346082257940  0.4999231881182483  0.5824216505718841   T   T   T
  0.1666843834638984  0.3333591995985158  0.6403358389756180   T   T   T
  0.1666942260171711  0.8333291328330377  0.6403766791693573   T   T   T
  0.6666517297024126  0.3333201369039206  0.6404772826221418   T   T   T
  0.6666282571810327  0.8333201059685029  0.6403812491754260   T   T   T
 
  0.00000000E+00  0.00000000E+00  0.00000000E+00
  0.00000000E+00  0.00000000E+00  0.00000000E+00
  0.00000000E+00  0.00000000E+00  0.00000000E+00
  0.00000000E+00  0.00000000E+00  0.00000000E+00
  0.00000000E+00  0.00000000E+00  0.00000000E+00
  0.00000000E+00  0.00000000E+00  0.00000000E+00
  0.00000000E+00  0.00000000E+00  0.00000000E+00
  0.00000000E+00  0.00000000E+00  0.00000000E+00
  0.00000000E+00  0.00000000E+00  0.00000000E+00
  0.00000000E+00  0.00000000E+00  0.00000000E+00
  0.00000000E+00  0.00000000E+00  0.00000000E+00
  0.00000000E+00  0.00000000E+00  0.00000000E+00
  0.00000000E+00  0.00000000E+00  0.00000000E+00
  0.00000000E+00  0.00000000E+00  0.00000000E+00
  0.00000000E+00  0.00000000E+00  0.00000000E+00
  0.00000000E+00  0.00000000E+00  0.00000000E+00
  0.00000000E+00  0.00000000E+00  0.00000000E+00
  0.00000000E+00  0.00000000E+00  0.00000000E+00
  0.00000000E+00  0.00000000E+00  0.00000000E+00
  0.00000000E+00  0.00000000E+00  0.00000000E+00
  0.00000000E+00  0.00000000E+00  0.00000000E+00
  0.00000000E+00  0.00000000E+00  0.00000000E+00
  0.00000000E+00  0.00000000E+00  0.00000000E+00
  0.00000000E+00  0.00000000E+00  0.00000000E+00
