Pt1
1.0
2.441129 0.000000 1.409393
0.813711 2.301517 1.409393
0.000000 0.000000 2.818776
Pt
1
direct
0.000000 1.000000 1.000000 Pt
