Pt1                                     
    1.000000000000000     
     2.6101709999999998    0.0000050000000000    1.5069980000000001
     0.8700630000000000    2.4608900000000000    1.5069980000000001
     0.0000070000000000    0.0000050000000000    3.0139730000000000
   Pt
     1
Direct
  0.0000000000000000  0.0000000000000000  0.0000000000000000
 
  0.00000000E+00  0.00000000E+00  0.00000000E+00
