C1 O1                                   
    1.000000000000000     
    15.0000000000000000    0.0000000000000000    0.0000000000000000
     0.0000000000000000   15.0000000000000000    0.0000000000000000
     0.0000000000000000    0.0000000000000000   15.0000000000000000
   C    O 
     1     1
Direct
  0.4999999999589053  0.5000000016538387  0.4617230390680083
  0.5000000000410947  0.4999999983461612  0.5382769609319917
 
  0.00000000E+00  0.00000000E+00  0.00000000E+00
  0.00000000E+00  0.00000000E+00  0.00000000E+00
