Pt1                                     
    1.000000000000000     
     2.3764249999999998    0.0000050000000000    1.3720429999999999
     0.7921470000000000    2.2405119999999998    1.3720429999999999
     0.0000060000000000    0.0000050000000000    2.7440650000000000
   Pt
     1
Direct
  0.0000000000000000  0.0000000000000000  0.0000000000000000
 
  0.00000000E+00  0.00000000E+00  0.00000000E+00
