Pt12                                    
    1.000000000000000     
     5.6371940000000000    0.0000000000000000    0.0000000000000000
    -2.8185970000000000    4.8819530000000002    0.0000000000000000
     0.0000000000000000    0.0000000000000000   34.5206220000000030
   Pt
    12
Selective dynamics
Direct
  0.3333330000000032  0.1666669999999968  0.4333329999999975   F   F   F
  0.3333330000000032  0.6666669999999968  0.4333329999999975   F   F   F
  0.8333330000000032  0.1666669999999968  0.4333329999999975   F   F   F
  0.8333330000000032  0.6666669999999968  0.4333329999999975   F   F   F
  0.5000000000000000  0.0000000000000000  0.5000000000000000   F   F   F
  0.5000000000000000  0.5000000000000000  0.5000000000000000   F   F   F
  0.0000000000000000  0.0000000000000000  0.5000000000000000   F   F   F
  0.0000000000000000  0.5000000000000000  0.5000000000000000   F   F   F
  0.1666674832305582  0.3333316766690217  0.5683668857526026   T   T   T
  0.1666656513550414  0.8333341787495393  0.5683644096452128   T   T   T
  0.6666657907245315  0.3333339202667128  0.5683659625615409   T   T   T
  0.6666679507830661  0.8333323310621931  0.5683600004315555   T   T   T
 
  0.00000000E+00  0.00000000E+00  0.00000000E+00
  0.00000000E+00  0.00000000E+00  0.00000000E+00
  0.00000000E+00  0.00000000E+00  0.00000000E+00
  0.00000000E+00  0.00000000E+00  0.00000000E+00
  0.00000000E+00  0.00000000E+00  0.00000000E+00
  0.00000000E+00  0.00000000E+00  0.00000000E+00
  0.00000000E+00  0.00000000E+00  0.00000000E+00
  0.00000000E+00  0.00000000E+00  0.00000000E+00
  0.00000000E+00  0.00000000E+00  0.00000000E+00
  0.00000000E+00  0.00000000E+00  0.00000000E+00
  0.00000000E+00  0.00000000E+00  0.00000000E+00
  0.00000000E+00  0.00000000E+00  0.00000000E+00
