Pt1                                     
    1.000000000000000     
     2.2011150000000002    0.0000040000000000    1.2708269999999999
     0.7337100000000000    2.0752280000000001    1.2708269999999999
     0.0000060000000000    0.0000040000000000    2.5416340000000002
   Pt
     1
Direct
  0.0000000000000000  0.0000000000000000  0.0000000000000000
 
  0.00000000E+00  0.00000000E+00  0.00000000E+00
