Pt1
1.0
2.610171 0.000005 1.506998
0.870063 2.460890 1.506998
0.000007 0.000005 3.013973
Pt
1
direct
-0.000000 -0.000000 -0.000000 Pt

0.000000 0.000000 0.000000
