Pt1                                     
    1.000000000000000     
     2.4025210000000001    0.0000000000000000    1.3870960000000001
     0.8008400000000000    2.2651180000000002    1.3870960000000001
     0.0000000000000000    0.0000000000000000    2.7741920000000002
   Pt
     1
Direct
  0.0000000000000000  0.0000000000000000  0.0000000000000000
 
  0.00000000E+00  0.00000000E+00  0.00000000E+00
