ALGO = 38
AMIN = 0.01
AMIX = 0.2
BMIX = 0.001
EDIFF = 0.0001
EDIFFG = -0.03
ENCUT = 420
GGA = RP
IBRION = 2
ISIF = 0
ISMEAR = 0
ISPIN = 1
ISYM = 0
LASPH = False
LORBIT = 11
LREAL = True
LVTOT = False
LWAVE = False
NCORE = 4
NELM = 80
NELMIN = 4
NSW = 300
PREC = Normal
SIGMA = 0.05
SYMPREC = 1e-05
