Pt8
1.0
5.631812 0.000000 0.246262
2.810522 4.880397 0.246262
0.000000 0.000000 32.260317
Pt
8
Selective dynamics
direct
0.053571 0.125000 0.535714 T T T Pt
0.053571 0.625000 0.535714 T T T Pt
0.553571 0.125000 0.535714 T T T Pt
0.553571 0.625000 0.535714 T T T Pt
0.232143 0.303571 0.464286 F F F Pt
0.232143 0.803571 0.464286 F F F Pt
0.732143 0.303571 0.464286 F F F Pt
0.732143 0.803571 0.464286 F F F Pt
