Pt8                                     
    1.000000000000000     
     5.6318120000000000    0.0000000000000000    0.2462620000000000
     2.8105220000000002    4.8803970000000003    0.2462620000000000
     0.0000000000000000    0.0000000000000000   32.2603170000000006
   Pt
     8
Selective dynamics
Direct
  0.0641875113274132  0.1356243242890480  0.5387187643847959   T   T   T
  0.0637906611956889  0.6359715043313335  0.5387005896380056   T   T   T
  0.5639749121383042  0.1357655393900964  0.5387153462423642   T   T   T
  0.5640804233794383  0.6356649242942901  0.5387097867817228   T   T   T
  0.2321430000000007  0.3035709999999980  0.4642860000000013   F   F   F
  0.2321430000000007  0.8035709999999980  0.4642860000000013   F   F   F
  0.7321430000000007  0.3035709999999980  0.4642860000000013   F   F   F
  0.7321430000000007  0.8035709999999980  0.4642860000000013   F   F   F
 
  0.00000000E+00  0.00000000E+00  0.00000000E+00
  0.00000000E+00  0.00000000E+00  0.00000000E+00
  0.00000000E+00  0.00000000E+00  0.00000000E+00
  0.00000000E+00  0.00000000E+00  0.00000000E+00
  0.00000000E+00  0.00000000E+00  0.00000000E+00
  0.00000000E+00  0.00000000E+00  0.00000000E+00
  0.00000000E+00  0.00000000E+00  0.00000000E+00
  0.00000000E+00  0.00000000E+00  0.00000000E+00
